10  5
  0  37  1  34  2  10  3  59  4  26
  0  39  1  54  2  28  3  35  4  8
  0  3  1  28  2  8  3  28  4  7
  0  1  1  66  2  44  3  54  4  24
  0  38  1  73  2  19  3  58  4  92
  0  66  1  90  2  38  3  83  4  60
  0  5  1  25  2  2  3  26  4  91
  0  67  1  84  2  96  3  98  4  53
  0  61  1  42  2  78  3  40  4  9
  0  26  1  28  2  1  3  45  4  45
